10J3M/DAT/10J3MNTX-1.dat
10 3
21.772 4.666
35.866 5.9888
24.377 4.9373
28.4112 5.3302
21.6647 4.6545
33.0938 5.7527
24.736 4.9735
31.8837 5.6466
25.3512 5.035
23.9452 4.8934
12.9695