10J3M/SOL/10J3MNTX-1.sol
solution status: optimal solution found
objective value:                     69.9360684554706
x#2#1                               0.535855199073249 	(obj:0)
x#2#3                               0.464144800926751 	(obj:0)
x#3#2                               0.638563494434768 	(obj:0)
x#3#3                               0.361436505565232 	(obj:0)
x#4#1                                               1 	(obj:0)
x#6#2                               0.403443746887087 	(obj:0)
x#6#3                               0.596556253112913 	(obj:0)
x#7#3                                               1 	(obj:0)
x#8#2                                               1 	(obj:0)
x#9#1                               0.879874952093372 	(obj:0)
x#9#2                               0.120125047906628 	(obj:0)
x#10#2                              0.254301712510728 	(obj:0)
z                                    69.9360684554706 	(obj:1)
